words_hard_train/1075.qaiger
aag 41 11 0 1 30
2
4
8
10
16
18
24
26
34
46
54
82
6 2 4
12 8 10
14 6 12
20 16 18
22 14 20
28 24 27
30 22 28
32 17 25
36 35 3
38 32 36
40 19 5
42 38 40
44 43 27
48 47 10
50 49 9
52 46 11
56 52 54
58 51 57
60 45 59
62 31 61
64 48 8
66 64 55
68 34 2
70 67 69
72 71 24
74 20 37
76 74 4
78 72 76
80 79 26
82 62 81
i0 2 y2[2]
i1 2 y2[5]
i2 2 y2[0]
i3 2 y2[1]
i4 2 y2[3]
i5 2 y2[4]
i6 2 y2[6]
i7 2 y2[7]
i8 1 x2[7]
i9 1 x2[6]
i10 1 x2[5]
o0 bv[0]
c
simplified
  <
    >> 5
      1 x2
    xor
      add
        2 y2
        1
      1
