words_hard_train/1075.qaiger.qdimacs
p cnf 41 91
a 17 27 23 0
e 1 2 3 4 5 6 7 8 9 10 11 12 13 14 15 16 18 19 20 21 22 24 25 26 28 29 30 31 32 33 34 35 36 37 38 39 40 41 0
-1 -2 3 0
1 -3 0
2 -3 0
-4 -5 6 0
4 -6 0
5 -6 0
-3 -6 7 0
3 -7 0
6 -7 0
-8 -9 10 0
8 -10 0
9 -10 0
-7 -10 11 0
7 -11 0
10 -11 0
-12 13 14 0
12 -14 0
-13 -14 0
-11 -14 15 0
11 -15 0
14 -15 0
8 12 16 0
-8 -16 0
-12 -16 0
17 1 18 0
-17 -18 0
-1 -18 0
-16 -18 19 0
16 -19 0
18 -19 0
9 2 20 0
-9 -20 0
-2 -20 0
-19 -20 21 0
19 -21 0
20 -21 0
21 13 22 0
-21 -22 0
-13 -22 0
23 -5 24 0
-23 -24 0
5 -24 0
24 4 25 0
-24 -25 0
-4 -25 0
-23 5 26 0
23 -26 0
-5 -26 0
-26 -27 28 0
26 -28 0
27 -28 0
25 28 29 0
-25 -29 0
-28 -29 0
22 29 30 0
-22 -30 0
-29 -30 0
15 30 31 0
-15 -31 0
-30 -31 0
-24 -4 32 0
24 -32 0
4 -32 0
-32 27 33 0
32 -33 0
-27 -33 0
-17 -1 34 0
17 -34 0
1 -34 0
33 34 35 0
-33 -35 0
-34 -35 0
35 -12 36 0
-35 -36 0
12 -36 0
-10 18 37 0
10 -37 0
-18 -37 0
-37 -2 38 0
37 -38 0
2 -38 0
-36 -38 39 0
36 -39 0
38 -39 0
39 -13 40 0
-39 -40 0
13 -40 0
-31 40 41 0
31 -41 0
-40 -41 0
41 0
